p cnf 386 460
10 7 19 21 22 0
10 7 19 21 -22 0
10 7 19 -21 23 0
10 7 19 -21 -23 0
-10 17 1 24 25 0
-10 17 1 24 -25 0
-10 17 1 -24 26 0
-10 17 1 -24 -26 0
-6 -7 -1 27 28 0
-6 -7 -1 27 -28 0
-6 -7 -1 -27 29 0
-6 -7 -1 -27 -29 0
14 -12 15 30 31 0
14 -12 15 30 -31 0
14 -12 15 -30 32 0
14 -12 15 -30 -32 0
-1 -6 -4 33 34 0
-1 -6 -4 33 -34 0
-1 -6 -4 -33 35 0
-1 -6 -4 -33 -35 0
8 4 -7 36 37 0
8 4 -7 36 -37 0
8 4 -7 -36 38 0
8 4 -7 -36 -38 0
-18 2 -13 39 40 0
-18 2 -13 39 -40 0
-18 2 -13 -39 41 0
-18 2 -13 -39 -41 0
-20 10 -18 42 43 0
-20 10 -18 42 -43 0
-20 10 -18 -42 44 0
-20 10 -18 -42 -44 0
-9 -20 -10 45 46 0
-9 -20 -10 45 -46 0
-9 -20 -10 -45 47 0
-9 -20 -10 -45 -47 0
15 -3 -2 48 49 0
15 -3 -2 48 -49 0
15 -3 -2 -48 50 0
15 -3 -2 -48 -50 0
-14 20 2 51 52 0
-14 20 2 51 -52 0
-14 20 2 -51 53 0
-14 20 2 -51 -53 0
11 -6 -9 54 55 0
11 -6 -9 54 -55 0
11 -6 -9 -54 56 0
11 -6 -9 -54 -56 0
-20 -18 2 57 58 0
-20 -18 2 57 -58 0
-20 -18 2 -57 59 0
-20 -18 2 -57 -59 0
13 -1 9 60 61 0
13 -1 9 60 -61 0
13 -1 9 -60 62 0
13 -1 9 -60 -62 0
1 -9 7 63 64 0
1 -9 7 63 -64 0
1 -9 7 -63 65 0
1 -9 7 -63 -65 0
20 8 -3 66 67 0
20 8 -3 66 -67 0
20 8 -3 -66 68 0
20 8 -3 -66 -68 0
-8 -17 -16 69 70 0
-8 -17 -16 69 -70 0
-8 -17 -16 -69 71 0
-8 -17 -16 -69 -71 0
7 -19 13 72 73 0
7 -19 13 72 -73 0
7 -19 13 -72 74 0
7 -19 13 -72 -74 0
17 -9 6 75 76 0
17 -9 6 75 -76 0
17 -9 6 -75 77 0
17 -9 6 -75 -77 0
-9 -12 10 78 79 0
-9 -12 10 78 -79 0
-9 -12 10 -78 80 0
-9 -12 10 -78 -80 0
19 -13 -11 81 82 0
19 -13 -11 81 -82 0
19 -13 -11 -81 83 0
19 -13 -11 -81 -83 0
11 -1 -14 84 85 0
11 -1 -14 84 -85 0
11 -1 -14 -84 86 0
11 -1 -14 -84 -86 0
-1 3 12 87 88 0
-1 3 12 87 -88 0
-1 3 12 -87 89 0
-1 3 12 -87 -89 0
18 -7 17 90 91 0
18 -7 17 90 -91 0
18 -7 17 -90 92 0
18 -7 17 -90 -92 0
-4 -20 -13 93 94 0
-4 -20 -13 93 -94 0
-4 -20 -13 -93 95 0
-4 -20 -13 -93 -95 0
-14 -6 7 96 97 0
-14 -6 7 96 -97 0
-14 -6 7 -96 98 0
-14 -6 7 -96 -98 0
-5 -20 17 99 100 0
-5 -20 17 99 -100 0
-5 -20 17 -99 101 0
-5 -20 17 -99 -101 0
12 18 1 102 103 0
12 18 1 102 -103 0
12 18 1 -102 104 0
12 18 1 -102 -104 0
3 14 -6 105 106 0
3 14 -6 105 -106 0
3 14 -6 -105 107 0
3 14 -6 -105 -107 0
10 -3 12 108 109 0
10 -3 12 108 -109 0
10 -3 12 -108 110 0
10 -3 12 -108 -110 0
19 12 10 111 112 0
19 12 10 111 -112 0
19 12 10 -111 113 0
19 12 10 -111 -113 0
8 -10 9 114 115 0
8 -10 9 114 -115 0
8 -10 9 -114 116 0
8 -10 9 -114 -116 0
-13 -12 1 117 118 0
-13 -12 1 117 -118 0
-13 -12 1 -117 119 0
-13 -12 1 -117 -119 0
3 19 2 120 121 0
3 19 2 120 -121 0
3 19 2 -120 122 0
3 19 2 -120 -122 0
-20 -15 9 123 124 0
-20 -15 9 123 -124 0
-20 -15 9 -123 125 0
-20 -15 9 -123 -125 0
17 16 18 126 127 0
17 16 18 126 -127 0
17 16 18 -126 128 0
17 16 18 -126 -128 0
15 -9 -12 129 130 0
15 -9 -12 129 -130 0
15 -9 -12 -129 131 0
15 -9 -12 -129 -131 0
7 -5 -4 132 133 0
7 -5 -4 132 -133 0
7 -5 -4 -132 134 0
7 -5 -4 -132 -134 0
-16 1 18 135 136 0
-16 1 18 135 -136 0
-16 1 18 -135 137 0
-16 1 18 -135 -137 0
-3 -8 -16 138 139 0
-3 -8 -16 138 -139 0
-3 -8 -16 -138 140 0
-3 -8 -16 -138 -140 0
-17 16 9 141 142 0
-17 16 9 141 -142 0
-17 16 9 -141 143 0
-17 16 9 -141 -143 0
17 9 19 144 145 0
17 9 19 144 -145 0
17 9 19 -144 146 0
17 9 19 -144 -146 0
-14 4 13 147 148 0
-14 4 13 147 -148 0
-14 4 13 -147 149 0
-14 4 13 -147 -149 0
-12 1 5 150 151 0
-12 1 5 150 -151 0
-12 1 5 -150 152 0
-12 1 5 -150 -152 0
7 17 -18 153 154 0
7 17 -18 153 -154 0
7 17 -18 -153 155 0
7 17 -18 -153 -155 0
1 18 8 156 157 0
1 18 8 156 -157 0
1 18 8 -156 158 0
1 18 8 -156 -158 0
-19 -3 -14 159 160 0
-19 -3 -14 159 -160 0
-19 -3 -14 -159 161 0
-19 -3 -14 -159 -161 0
-2 -5 18 162 163 0
-2 -5 18 162 -163 0
-2 -5 18 -162 164 0
-2 -5 18 -162 -164 0
2 9 1 165 166 0
2 9 1 165 -166 0
2 9 1 -165 167 0
2 9 1 -165 -167 0
13 15 19 168 169 0
13 15 19 168 -169 0
13 15 19 -168 170 0
13 15 19 -168 -170 0
-4 1 -6 171 172 0
-4 1 -6 171 -172 0
-4 1 -6 -171 173 0
-4 1 -6 -171 -173 0
16 -1 15 174 175 0
16 -1 15 174 -175 0
16 -1 15 -174 176 0
16 -1 15 -174 -176 0
3 -20 11 177 178 0
3 -20 11 177 -178 0
3 -20 11 -177 179 0
3 -20 11 -177 -179 0
1 16 2 180 181 0
1 16 2 180 -181 0
1 16 2 -180 182 0
1 16 2 -180 -182 0
14 -19 -3 183 184 0
14 -19 -3 183 -184 0
14 -19 -3 -183 185 0
14 -19 -3 -183 -185 0
-6 19 17 186 187 0
-6 19 17 186 -187 0
-6 19 17 -186 188 0
-6 19 17 -186 -188 0
13 3 2 189 190 0
13 3 2 189 -190 0
13 3 2 -189 191 0
13 3 2 -189 -191 0
5 -20 19 192 193 0
5 -20 19 192 -193 0
5 -20 19 -192 194 0
5 -20 19 -192 -194 0
6 9 2 195 196 0
6 9 2 195 -196 0
6 9 2 -195 197 0
6 9 2 -195 -197 0
10 3 13 198 199 0
10 3 13 198 -199 0
10 3 13 -198 200 0
10 3 13 -198 -200 0
12 20 19 201 202 0
12 20 19 201 -202 0
12 20 19 -201 203 0
12 20 19 -201 -203 0
1 4 -8 204 205 0
1 4 -8 204 -205 0
1 4 -8 -204 206 0
1 4 -8 -204 -206 0
-7 -5 -14 207 208 0
-7 -5 -14 207 -208 0
-7 -5 -14 -207 209 0
-7 -5 -14 -207 -209 0
18 -7 1 210 211 0
18 -7 1 210 -211 0
18 -7 1 -210 212 0
18 -7 1 -210 -212 0
14 19 8 213 214 0
14 19 8 213 -214 0
14 19 8 -213 215 0
14 19 8 -213 -215 0
9 15 8 216 217 0
9 15 8 216 -217 0
9 15 8 -216 218 0
9 15 8 -216 -218 0
14 -4 -2 219 220 0
14 -4 -2 219 -220 0
14 -4 -2 -219 221 0
14 -4 -2 -219 -221 0
13 -2 11 222 223 0
13 -2 11 222 -223 0
13 -2 11 -222 224 0
13 -2 11 -222 -224 0
2 7 -10 225 226 0
2 7 -10 225 -226 0
2 7 -10 -225 227 0
2 7 -10 -225 -227 0
20 1 -3 228 229 0
20 1 -3 228 -229 0
20 1 -3 -228 230 0
20 1 -3 -228 -230 0
15 20 19 231 232 0
15 20 19 231 -232 0
15 20 19 -231 233 0
15 20 19 -231 -233 0
-16 -6 -2 234 235 0
-16 -6 -2 234 -235 0
-16 -6 -2 -234 236 0
-16 -6 -2 -234 -236 0
14 5 1 237 238 0
14 5 1 237 -238 0
14 5 1 -237 239 0
14 5 1 -237 -239 0
15 -11 7 240 241 0
15 -11 7 240 -241 0
15 -11 7 -240 242 0
15 -11 7 -240 -242 0
20 16 -10 243 244 0
20 16 -10 243 -244 0
20 16 -10 -243 245 0
20 16 -10 -243 -245 0
-13 -16 -14 246 247 0
-13 -16 -14 246 -247 0
-13 -16 -14 -246 248 0
-13 -16 -14 -246 -248 0
19 -14 -3 249 250 0
19 -14 -3 249 -250 0
19 -14 -3 -249 251 0
19 -14 -3 -249 -251 0
20 5 19 252 253 0
20 5 19 252 -253 0
20 5 19 -252 254 0
20 5 19 -252 -254 0
1 4 -18 255 256 0
1 4 -18 255 -256 0
1 4 -18 -255 257 0
1 4 -18 -255 -257 0
17 7 -9 258 259 0
17 7 -9 258 -259 0
17 7 -9 -258 260 0
17 7 -9 -258 -260 0
-20 -1 7 261 262 0
-20 -1 7 261 -262 0
-20 -1 7 -261 263 0
-20 -1 7 -261 -263 0
-10 18 12 264 265 0
-10 18 12 264 -265 0
-10 18 12 -264 266 0
-10 18 12 -264 -266 0
10 12 4 267 268 0
10 12 4 267 -268 0
10 12 4 -267 269 0
10 12 4 -267 -269 0
-11 -4 8 270 271 0
-11 -4 8 270 -271 0
-11 -4 8 -270 272 0
-11 -4 8 -270 -272 0
-14 19 -10 273 274 0
-14 19 -10 273 -274 0
-14 19 -10 -273 275 0
-14 19 -10 -273 -275 0
-19 -8 -6 276 277 0
-19 -8 -6 276 -277 0
-19 -8 -6 -276 278 0
-19 -8 -6 -276 -278 0
-2 -9 -8 279 280 0
-2 -9 -8 279 -280 0
-2 -9 -8 -279 281 0
-2 -9 -8 -279 -281 0
-18 8 -1 282 283 0
-18 8 -1 282 -283 0
-18 8 -1 -282 284 0
-18 8 -1 -282 -284 0
8 12 -18 285 286 0
8 12 -18 285 -286 0
8 12 -18 -285 287 0
8 12 -18 -285 -287 0
-18 2 8 288 289 0
-18 2 8 288 -289 0
-18 2 8 -288 290 0
-18 2 8 -288 -290 0
-16 13 8 291 292 0
-16 13 8 291 -292 0
-16 13 8 -291 293 0
-16 13 8 -291 -293 0
294 295 297 301 309 0
294 295 297 301 -309 0
294 295 297 -301 310 0
294 295 297 -301 -310 0
294 295 -297 302 311 0
294 295 -297 302 -311 0
294 295 -297 -302 312 0
294 295 -297 -302 -312 0
294 -295 298 303 313 0
294 -295 298 303 -313 0
294 -295 298 -303 314 0
294 -295 298 -303 -314 0
294 -295 -298 304 315 0
294 -295 -298 304 -315 0
294 -295 -298 -304 316 0
294 -295 -298 -304 -316 0
-294 296 299 305 317 0
-294 296 299 305 -317 0
-294 296 299 -305 318 0
-294 296 299 -305 -318 0
-294 296 -299 306 319 0
-294 296 -299 306 -319 0
-294 296 -299 -306 320 0
-294 296 -299 -306 -320 0
-294 -296 300 307 321 0
-294 -296 300 307 -321 0
-294 -296 300 -307 322 0
-294 -296 300 -307 -322 0
-294 -296 -300 308 323 0
-294 -296 -300 308 -323 0
-294 -296 -300 -308 324 0
-294 -296 -300 -308 -324 0
325 326 328 332 340 0
325 326 328 332 -340 0
325 326 328 -332 341 0
325 326 328 -332 -341 0
325 326 -328 333 342 0
325 326 -328 333 -342 0
325 326 -328 -333 343 0
325 326 -328 -333 -343 0
325 -326 329 334 344 0
325 -326 329 334 -344 0
325 -326 329 -334 345 0
325 -326 329 -334 -345 0
325 -326 -329 335 346 0
325 -326 -329 335 -346 0
325 -326 -329 -335 347 0
325 -326 -329 -335 -347 0
-325 327 330 336 348 0
-325 327 330 336 -348 0
-325 327 330 -336 349 0
-325 327 330 -336 -349 0
-325 327 -330 337 350 0
-325 327 -330 337 -350 0
-325 327 -330 -337 351 0
-325 327 -330 -337 -351 0
-325 -327 331 338 352 0
-325 -327 331 338 -352 0
-325 -327 331 -338 353 0
-325 -327 331 -338 -353 0
-325 -327 -331 339 354 0
-325 -327 -331 339 -354 0
-325 -327 -331 -339 355 0
-325 -327 -331 -339 -355 0
356 357 359 363 371 0
356 357 359 363 -371 0
356 357 359 -363 372 0
356 357 359 -363 -372 0
356 357 -359 364 373 0
356 357 -359 364 -373 0
356 357 -359 -364 374 0
356 357 -359 -364 -374 0
356 -357 360 365 375 0
356 -357 360 365 -375 0
356 -357 360 -365 376 0
356 -357 360 -365 -376 0
356 -357 -360 366 377 0
356 -357 -360 366 -377 0
356 -357 -360 -366 378 0
356 -357 -360 -366 -378 0
-356 358 361 367 379 0
-356 358 361 367 -379 0
-356 358 361 -367 380 0
-356 358 361 -367 -380 0
-356 358 -361 368 381 0
-356 358 -361 368 -381 0
-356 358 -361 -368 382 0
-356 358 -361 -368 -382 0
-356 -358 362 369 383 0
-356 -358 362 369 -383 0
-356 -358 362 -369 384 0
-356 -358 362 -369 -384 0
-356 -358 -362 370 385 0
-356 -358 -362 370 -385 0
-356 -358 -362 -370 386 0
-356 -358 -362 -370 -386 0

